(set-info :smt-lib-version 2.6)
(set-logic UF)
(set-info :source |Benchmarks from the paper: "Extending Sledgehammer with SMT Solvers" by Jasmin Blanchette, Sascha Bohme, and Lawrence C. Paulson, CADE 2011.  Translated to SMT2 by Andrew Reynolds and Morgan Deters.|)
(set-info :category "industrial")
(set-info :status sat)
(declare-sort S1 0)
(declare-sort S2 0)
(declare-sort S3 0)
(declare-sort S4 0)
(declare-sort S5 0)
(declare-sort S6 0)
(declare-sort S7 0)
(declare-sort S8 0)
(declare-sort S9 0)
(declare-sort S10 0)
(declare-sort S11 0)
(declare-sort S12 0)
(declare-sort S13 0)
(declare-sort S14 0)
(declare-sort S15 0)
(declare-sort S16 0)
(declare-sort S17 0)
(declare-sort S18 0)
(declare-sort S19 0)
(declare-sort S20 0)
(declare-sort S21 0)
(declare-sort S22 0)
(declare-sort S23 0)
(declare-sort S24 0)
(declare-sort S25 0)
(declare-sort S26 0)
(declare-sort S27 0)
(declare-sort S28 0)
(declare-sort S29 0)
(declare-sort S30 0)
(declare-sort S31 0)
(declare-sort S32 0)
(declare-sort S33 0)
(declare-sort S34 0)
(declare-sort S35 0)
(declare-sort S36 0)
(declare-sort S37 0)
(declare-sort S38 0)
(declare-sort S39 0)
(declare-sort S40 0)
(declare-sort S41 0)
(declare-sort S42 0)
(declare-sort S43 0)
(declare-sort S44 0)
(declare-sort S45 0)
(declare-sort S46 0)
(declare-sort S47 0)
(declare-sort S48 0)
(declare-sort S49 0)
(declare-sort S50 0)
(declare-sort S51 0)
(declare-fun f1 () S1)
(declare-fun f2 () S1)
(declare-fun f3 (S3 S2) S2)
(declare-fun f4 () S3)
(declare-fun f5 (S4 S5) S2)
(declare-fun f6 (S6 S2) S4)
(declare-fun f7 () S6)
(declare-fun f8 () S5)
(declare-fun f9 (S7 S8) S1)
(declare-fun f10 (S9 S7) S7)
(declare-fun f11 () S9)
(declare-fun f12 (S10 S8) S7)
(declare-fun f13 () S10)
(declare-fun f14 () S8)
(declare-fun f15 (S11 S5) S3)
(declare-fun f16 () S11)
(declare-fun f17 (S13 S2) S1)
(declare-fun f18 (S14 S12) S13)
(declare-fun f19 () S14)
(declare-fun f20 (S16 S15) S1)
(declare-fun f21 (S17 S2) S16)
(declare-fun f22 (S18 S12) S17)
(declare-fun f23 () S18)
(declare-fun f24 (S19 S2) S11)
(declare-fun f25 () S19)
(declare-fun f26 (S20 S2) S6)
(declare-fun f27 () S20)
(declare-fun f28 (S21 S13) S13)
(declare-fun f29 (S22 S13) S21)
(declare-fun f30 () S22)
(declare-fun f31 () S3)
(declare-fun f32 (S23 S5) S8)
(declare-fun f33 () S23)
(declare-fun f34 (S24 S5) S1)
(declare-fun f35 () S24)
(declare-fun f36 (S25 S26) S1)
(declare-fun f37 (S27 S13) S25)
(declare-fun f38 () S27)
(declare-fun f39 () S13)
(declare-fun f40 (S28 S26) S26)
(declare-fun f41 (S29 S3) S28)
(declare-fun f42 () S29)
(declare-fun f43 () S26)
(declare-fun f44 (S31 S32) S8)
(declare-fun f45 () S31)
(declare-fun f46 (S23 S30) S32)
(declare-fun f47 (S34 S33) S1)
(declare-fun f48 (S35 S26) S34)
(declare-fun f49 (S36 S12) S35)
(declare-fun f50 () S36)
(declare-fun f51 (S37 S15) S12)
(declare-fun f52 (S38 S5) S37)
(declare-fun f53 (S39 S12) S38)
(declare-fun f54 () S39)
(declare-fun f55 (S40 S1) S5)
(declare-fun f56 () S40)
(declare-fun f57 (S42 S41) S5)
(declare-fun f58 () S42)
(declare-fun f59 (S44 S43) S5)
(declare-fun f60 () S44)
(declare-fun f61 (S45 S5) S5)
(declare-fun f62 () S45)
(declare-fun f63 () S44)
(declare-fun f64 () S45)
(declare-fun f65 () S23)
(declare-fun f66 (S12 S5) S15)
(declare-fun f67 () S40)
(declare-fun f68 (S47 S46) S43)
(declare-fun f69 (S48 S46) S47)
(declare-fun f70 () S48)
(declare-fun f71 () S45)
(declare-fun f72 (S49 S24) S1)
(declare-fun f73 (S50 S23) S49)
(declare-fun f74 () S50)
(declare-fun f75 (S30) S32)
(declare-fun f76 (S51 S5) S24)
(declare-fun f77 () S51)
(declare-fun f78 () S9)
(assert (not (= f1 f2)))
(assert (forall ((?v0 S2)) (= (f3 f4 ?v0) (f5 (f6 f7 ?v0) f8))))
(assert (forall ((?v0 S7) (?v1 S8)) (= (= (f9 (f10 f11 ?v0) ?v1) f1) (and (= (f9 (f12 f13 f14) ?v1) f1) (= (f9 ?v0 ?v1) f1)))))
(assert (forall ((?v0 S5) (?v1 S2)) (= (f3 (f15 f16 ?v0) ?v1) (f5 (f6 f7 ?v1) ?v0))))
(assert (forall ((?v0 S12) (?v1 S2)) (= (= (f17 (f18 f19 ?v0) ?v1) f1) (exists ((?v2 S15)) (= (f20 (f21 (f22 f23 ?v0) ?v1) ?v2) f1)))))
(assert (forall ((?v0 S2) (?v1 S5) (?v2 S2)) (= (f3 (f15 (f24 f25 ?v0) ?v1) ?v2) (f5 (f6 (f26 f27 ?v2) ?v0) ?v1))))
(assert (forall ((?v0 S13) (?v1 S13) (?v2 S2)) (= (= (f17 (f28 (f29 f30 ?v0) ?v1) ?v2) f1) (and (= (f17 ?v0 ?v2) f1) (= (f17 ?v1 ?v2) f1)))))
(assert (forall ((?v0 S2)) (= (f3 f31 ?v0) ?v0)))
(assert (forall ((?v0 S5)) (= (f32 f33 ?v0) f14)))
(assert (forall ((?v0 S5)) (= (= (f34 f35 ?v0) f1) true)))
(assert (not (= (f36 (f37 f38 f39) (f40 (f41 f42 f4) f43)) f1)))
(assert (= (f36 (f37 f38 f39) f43) f1))
(assert (forall ((?v0 S2) (?v1 S5)) (=> (= (f17 f39 ?v0) f1) (= (f17 f39 (f5 (f6 f7 ?v0) ?v1)) f1))))
(assert (forall ((?v0 S13) (?v1 S13) (?v2 S26)) (= (= (f36 (f37 f38 (f28 (f29 f30 ?v0) ?v1)) ?v2) f1) (and (= (f36 (f37 f38 ?v0) ?v2) f1) (= (f36 (f37 f38 ?v1) ?v2) f1)))))
(assert (forall ((?v0 S26)) (= (f40 (f41 f42 f31) ?v0) ?v0)))
(assert (forall ((?v0 S5)) (= (= f8 ?v0) (= ?v0 f8))))
(assert (forall ((?v0 S8)) (= (= f14 ?v0) (= ?v0 f14))))
(assert (forall ((?v0 S30)) (= (f44 f45 (f46 f33 ?v0)) f14)))
(assert (forall ((?v0 S12) (?v1 S26) (?v2 S33) (?v3 S5) (?v4 S15)) (=> (= (f47 (f48 (f49 f50 ?v0) ?v1) ?v2) f1) (= (f47 (f48 (f49 f50 (f51 (f52 (f53 f54 ?v0) ?v3) ?v4)) (f40 (f41 f42 (f15 f16 ?v3)) ?v1)) ?v2) f1))))
(assert (= (f55 f56 f1) f8))
(assert (= (f55 f56 f2) f8))
(assert (forall ((?v0 S41)) (= (f57 f58 ?v0) f8)))
(assert (forall ((?v0 S43)) (= (f59 f60 ?v0) f8)))
(assert (= (f61 f62 f8) f8))
(assert (forall ((?v0 S43)) (= (f59 f63 ?v0) f8)))
(assert (= (f61 f64 f8) f8))
(assert (= (f32 f65 f8) f14))
(assert (forall ((?v0 S5) (?v1 S5)) (= (= (f61 f64 ?v0) (f61 f64 ?v1)) (= ?v0 ?v1))))
(assert (forall ((?v0 S5) (?v1 S5)) (= (= (f32 f65 ?v0) (f32 f65 ?v1)) (= ?v0 ?v1))))
(assert (forall ((?v0 S5) (?v1 S5) (?v2 S12) (?v3 S15)) (=> (= ?v0 ?v1) (= (f66 (f51 (f52 (f53 f54 ?v2) ?v0) ?v3) ?v1) ?v3))))
(assert (forall ((?v0 S12) (?v1 S2) (?v2 S15) (?v3 S5) (?v4 S15)) (=> (= (f20 (f21 (f22 f23 ?v0) ?v1) ?v2) f1) (= (f20 (f21 (f22 f23 (f51 (f52 (f53 f54 ?v0) ?v3) ?v4)) (f5 (f6 f7 ?v1) ?v3)) ?v2) f1))))
(assert (= f14 (f32 f65 f8)))
(assert (= (f32 f65 f8) f14))
(assert (forall ((?v0 S5)) (= (= (f32 f65 ?v0) f14) (= ?v0 f8))))
(assert (forall ((?v0 S1)) (= (f55 f67 ?v0) f8)))
(assert (= (f55 f67 f2) f8))
(assert (= (f55 f67 f1) f8))
(assert (forall ((?v0 S46) (?v1 S46)) (= (f59 f63 (f68 (f69 f70 ?v0) ?v1)) f8)))
(assert (forall ((?v0 S46) (?v1 S46)) (= (f59 f60 (f68 (f69 f70 ?v0) ?v1)) f8)))
(assert (= (f61 f71 f8) f8))
(assert (forall ((?v0 S5) (?v1 S5)) (= (= (f32 f65 ?v0) (f32 f65 ?v1)) (= ?v0 ?v1))))
(assert (forall ((?v0 S5) (?v1 S5)) (= (= (f32 f65 ?v0) (f32 f65 ?v1)) (= ?v0 ?v1))))
(assert (forall ((?v0 S46) (?v1 S46) (?v2 S46) (?v3 S46)) (= (= (f68 (f69 f70 ?v0) ?v1) (f68 (f69 f70 ?v2) ?v3)) (and (= ?v0 ?v2) (= ?v1 ?v3)))))
(assert (forall ((?v0 S1) (?v1 S5) (?v2 S5)) (let ((?v_0 (= ?v0 f1))) (= (ite ?v_0 (f32 f65 ?v1) (f32 f65 ?v2)) (f32 f65 (ite ?v_0 ?v1 ?v2))))))
(assert (forall ((?v0 S5)) (= (f61 f71 ?v0) ?v0)))
(assert (forall ((?v0 S12) (?v1 S2) (?v2 S15) (?v3 S5) (?v4 S26) (?v5 S33)) (=> (= (f20 (f21 (f22 f23 ?v0) ?v1) ?v2) f1) (=> (= (f47 (f48 (f49 f50 (f51 (f52 (f53 f54 ?v0) ?v3) ?v2)) ?v4) ?v5) f1) (= (f47 (f48 (f49 f50 ?v0) (f40 (f41 f42 (f15 (f24 f25 ?v1) ?v3)) ?v4)) ?v5) f1)))))
(assert (= (f72 (f73 f74 f65) f35) f1))
(assert (forall ((?v0 S43)) (=> (forall ((?v1 S46) (?v2 S46)) (=> (= ?v0 (f68 (f69 f70 ?v1) ?v2)) false)) false)))
(assert (forall ((?v0 S12) (?v1 S26) (?v2 S33)) (=> (= (f47 (f48 (f49 f50 ?v0) ?v1) ?v2) f1) (= (f36 (f37 f38 (f18 f19 ?v0)) ?v1) f1))))
(assert (forall ((?v0 S30)) (= (f75 ?v0) (f46 f65 ?v0))))
(assert (forall ((?v0 S5)) (= (= (f9 (f12 f13 (f32 f65 ?v0)) f14) f1) (= ?v0 f8))))
(assert (forall ((?v0 S23) (?v1 S24)) (= (f72 (f73 f74 ?v0) ?v1) f1)))
(assert (forall ((?v0 S8) (?v1 S8)) (=> (= (f9 (f12 f13 ?v0) ?v1) f1) (=> (= (f9 (f12 f13 ?v1) ?v0) f1) (= ?v0 ?v1)))))
(assert (forall ((?v0 S8) (?v1 S8) (?v2 S8)) (let ((?v_0 (f12 f13 ?v0))) (=> (= (f9 ?v_0 ?v1) f1) (=> (= (f9 (f12 f13 ?v1) ?v2) f1) (= (f9 ?v_0 ?v2) f1))))))
(assert (forall ((?v0 S8) (?v1 S8)) (or (= (f9 (f12 f13 ?v0) ?v1) f1) (= (f9 (f12 f13 ?v1) ?v0) f1))))
(assert (forall ((?v0 S8)) (= (f9 (f12 f13 ?v0) ?v0) f1)))
(assert (forall ((?v0 S5) (?v1 S5)) (= (= (f34 (f76 f77 (f61 f64 ?v0)) (f61 f64 ?v1)) f1) (= (f34 (f76 f77 ?v0) ?v1) f1))))
(assert (forall ((?v0 S5) (?v1 S5)) (= (= (f9 (f12 f13 (f32 f65 ?v0)) (f32 f65 ?v1)) f1) (= (f34 (f76 f77 ?v0) ?v1) f1))))
(assert (forall ((?v0 S23) (?v1 S24)) (= (= (f72 (f73 f74 ?v0) ?v1) f1) true)))
(assert (= (f9 (f12 f13 f14) f14) f1))
(assert (forall ((?v0 S5)) (= (f34 (f76 f77 f8) (f61 f64 ?v0)) f1)))
(assert (forall ((?v0 S5)) (= (f9 (f12 f13 f14) (f32 f65 ?v0)) f1)))
(assert (forall ((?v0 S5)) (= (f34 (f76 f77 f8) (f61 f64 ?v0)) f1)))
(assert (forall ((?v0 S5)) (= (f9 (f12 f13 f14) (f32 f65 ?v0)) f1)))
(assert (forall ((?v0 S7)) (= (forall ((?v1 S8)) (=> (= (f9 (f12 f13 f14) ?v1) f1) (= (f9 ?v0 ?v1) f1))) (forall ((?v1 S5)) (= (f9 ?v0 (f32 f65 ?v1)) f1)))))
(assert (forall ((?v0 S7)) (= (exists ((?v1 S8)) (and (= (f9 (f12 f13 f14) ?v1) f1) (= (f9 ?v0 ?v1) f1))) (exists ((?v1 S5)) (= (f9 ?v0 (f32 f65 ?v1)) f1)))))
(assert (forall ((?v0 S5)) (= (f9 (f12 f13 f14) (f32 f65 ?v0)) f1)))
(assert (forall ((?v0 S5)) (= (f9 (f12 f13 f14) (f32 f65 ?v0)) f1)))
(assert (forall ((?v0 S12) (?v1 S2) (?v2 S15) (?v3 S12) (?v4 S2) (?v5 S15) (?v6 S5)) (let ((?v_0 (f22 f23 ?v3))) (=> (= (f20 (f21 (f22 f23 ?v0) ?v1) ?v2) f1) (=> (= (f20 (f21 ?v_0 ?v4) ?v5) f1) (=> (= ?v0 (f51 (f52 (f53 f54 ?v3) ?v6) ?v5)) (= (f20 (f21 ?v_0 (f5 (f6 (f26 f27 ?v1) ?v4) ?v6)) ?v2) f1)))))))
(assert (forall ((?v0 S8)) (=> (= (f9 (f12 f13 f14) ?v0) f1) (=> (forall ((?v1 S5)) (=> (= ?v0 (f32 f65 ?v1)) false)) false))))
(assert (forall ((?v0 S8)) (=> (= (f9 (f12 f13 f14) ?v0) f1) (exists ((?v1 S5)) (= ?v0 (f32 f65 ?v1))))))
(assert (forall ((?v0 S7) (?v1 S7)) (=> (forall ((?v2 S8)) (=> (= (f9 (f12 f13 f14) ?v2) f1) (= (= (f9 ?v0 ?v2) f1) (= (f9 ?v1 ?v2) f1)))) (= (f10 f78 (f10 f11 ?v0)) (f10 f78 (f10 f11 ?v1))))))
(assert (forall ((?v0 S8)) (= (f9 (f12 f13 ?v0) ?v0) f1)))
(assert (forall ((?v0 S5)) (= (f34 (f76 f77 ?v0) ?v0) f1)))
(assert (forall ((?v0 S2) (?v1 S5) (?v2 S2)) (= (f5 (f6 (f26 f27 (f5 (f6 f7 ?v0) ?v1)) ?v2) ?v1) ?v0)))
(assert (forall ((?v0 S8) (?v1 S1) (?v2 S1)) (let ((?v_0 (= (f9 (f12 f13 f14) ?v0) f1)) (?v_1 (= ?v1 f1)) (?v_2 (= ?v2 f1))) (=> (=> ?v_0 (= ?v_1 ?v_2)) (= (=> ?v_0 ?v_1) (=> ?v_0 ?v_2))))))
(assert (forall ((?v0 S8) (?v1 S1) (?v2 S1)) (let ((?v_0 (= (f9 (f12 f13 f14) ?v0) f1)) (?v_1 (= ?v1 f1)) (?v_2 (= ?v2 f1))) (=> (=> ?v_0 (= ?v_1 ?v_2)) (= (and ?v_0 ?v_1) (and ?v_0 ?v_2))))))
(assert (forall ((?v0 S8)) (=> (= (f9 (f12 f13 f14) ?v0) f1) (=> (forall ((?v1 S5)) (=> (= ?v0 (f32 f65 ?v1)) false)) false))))
(assert (forall ((?v0 S5)) (= (f34 (f76 f77 f8) ?v0) f1)))
(check-sat)
(exit)
